Route #1: 17 51 16 63 33 6
Route #2: 2 30 48 29 45 34
Route #3: 52 27 13 54 19 8 46
Route #4: 57 15 5 37 20 60 36 47
Route #5: 21 61 28 62 43 1
Route #6: 11 38 10 58
Route #7: 9 50 18 55 25 31 39
Route #8: 12 40 32 44 3
Route #9: 24 49 23 56 41 42 64 22
Route #10: 35 14 59 53 7 26
Route #11: 4
Cost 848